\Problem name: transaction                                                      
\FICO Xpress v9.2.5, Community, written 20:33:28, Nov 22, 2023

Minimize
__OBJ___: 9617.288250000001 - 126.99365 X_1_1 - 23.700000000000003 X_1_2
 - 690 X_1_3 - 164.99450000000002 X_1_4 - 19.8 X_1_5
 - 15.817499999999999 X_1_6 - 13.452 X_1_7 - 25.55 X_1_8 - 33.15 X_1_9
 - 810 X_1_10 - 126.99365 X_2_1 - 23.700000000000003 X_2_2 - 690 X_2_3
 - 164.99450000000002 X_2_4 - 19.8 X_2_5 - 15.817499999999999 X_2_6
 - 13.452 X_2_7 - 25.55 X_2_8 - 33.15 X_2_9 - 810 X_2_10 - 126.99365 X_3_1
 - 23.700000000000003 X_3_2 - 690 X_3_3 - 164.99450000000002 X_3_4
 - 19.8 X_3_5 - 15.817499999999999 X_3_6 - 13.452 X_3_7 - 25.55 X_3_8
 - 33.15 X_3_9 - 810 X_3_10 - 126.99365 X_4_1 - 23.700000000000003 X_4_2
 - 690 X_4_3 - 164.99450000000002 X_4_4 - 19.8 X_4_5
 - 15.817499999999999 X_4_6 - 13.452 X_4_7 - 25.55 X_4_8 - 33.15 X_4_9
 - 810 X_4_10 - 126.99365 X_5_1 - 23.700000000000003 X_5_2 - 690 X_5_3
 - 164.99450000000002 X_5_4 - 19.8 X_5_5 - 15.817499999999999 X_5_6
 - 13.452 X_5_7 - 25.55 X_5_8 - 33.15 X_5_9 - 810 X_5_10 - 126.99365 X4_1_1
 - 23.700000000000003 X4_1_2 - 690 X4_1_3 - 164.99450000000002 X4_1_4
 - 19.8 X4_1_5 - 15.817499999999999 X4_1_6 - 13.452 X4_1_7 - 25.55 X4_1_8
 - 33.15 X4_1_9 - 810 X4_1_10 - 126.99365 X4_2_1 - 23.700000000000003 X4_2_2
 - 690 X4_2_3 - 164.99450000000002 X4_2_4 - 19.8 X4_2_5
 - 15.817499999999999 X4_2_6 - 13.452 X4_2_7 - 25.55 X4_2_8 - 33.15 X4_2_9
 - 810 X4_2_10 - 126.99365 X4_3_1 - 23.700000000000003 X4_3_2 - 690 X4_3_3
 - 164.99450000000002 X4_3_4 - 19.8 X4_3_5 - 15.817499999999999 X4_3_6
 - 13.452 X4_3_7 - 25.55 X4_3_8 - 33.15 X4_3_9 - 810 X4_3_10
 - 126.99365 X4_4_1 - 23.700000000000003 X4_4_2 - 690 X4_4_3
 - 164.99450000000002 X4_4_4 - 19.8 X4_4_5 - 15.817499999999999 X4_4_6
 - 13.452 X4_4_7 - 25.55 X4_4_8 - 33.15 X4_4_9 - 810 X4_4_10
 - 126.99365 X4_5_1 - 23.700000000000003 X4_5_2 - 690 X4_5_3
 - 164.99450000000002 X4_5_4 - 19.8 X4_5_5 - 15.817499999999999 X4_5_6
 - 13.452 X4_5_7 - 25.55 X4_5_8 - 33.15 X4_5_9 - 810 X4_5_10 - 125.99365 Z_1_1
 - 23.450000000000003 Z_2_1 - 689 Z_3_1 - 163.99450000000002 Z_4_1
 - 19.55 Z_5_1 - 15.567499999999999 Z_6_1 - 13.202 Z_7_1 - 25.3 Z_8_1
 - 32.9 Z_9_1 - 809 Z_10_1 - 125.99365 Z_1_2 - 23.450000000000003 Z_2_2
 - 689 Z_3_2 - 163.99450000000002 Z_4_2 - 19.55 Z_5_2
 - 15.567499999999999 Z_6_2 - 13.202 Z_7_2 - 25.3 Z_8_2 - 32.9 Z_9_2
 - 809 Z_10_2 - 125.99365 Z_1_3 - 23.450000000000003 Z_2_3 - 689 Z_3_3
 - 163.99450000000002 Z_4_3 - 19.55 Z_5_3 - 15.567499999999999 Z_6_3
 - 13.202 Z_7_3 - 25.3 Z_8_3 - 32.9 Z_9_3 - 809 Z_10_3 - 125.99365 Z_1_4
 - 23.450000000000003 Z_2_4 - 689 Z_3_4 - 163.99450000000002 Z_4_4
 - 19.55 Z_5_4 - 15.567499999999999 Z_6_4 - 13.202 Z_7_4 - 25.3 Z_8_4
 - 32.9 Z_9_4 - 809 Z_10_4 - 125.99365 Z_1_5 - 23.450000000000003 Z_2_5
 - 689 Z_3_5 - 163.99450000000002 Z_4_5 - 19.55 Z_5_5
 - 15.567499999999999 Z_6_5 - 13.202 Z_7_5 - 25.3 Z_8_5 - 32.9 Z_9_5
 - 809 Z_10_5 - 125.99365 Z4_1_1 - 23.450000000000003 Z4_2_1 - 689 Z4_3_1
 - 163.99450000000002 Z4_4_1 - 19.55 Z4_5_1 - 15.567499999999999 Z4_6_1
 - 13.202 Z4_7_1 - 25.3 Z4_8_1 - 32.9 Z4_9_1 - 809 Z4_10_1 - 125.99365 Z4_1_2
 - 23.450000000000003 Z4_2_2 - 689 Z4_3_2 - 163.99450000000002 Z4_4_2
 - 19.55 Z4_5_2 - 15.567499999999999 Z4_6_2 - 13.202 Z4_7_2 - 25.3 Z4_8_2
 - 32.9 Z4_9_2 - 809 Z4_10_2 - 125.99365 Z4_1_3 - 23.450000000000003 Z4_2_3
 - 689 Z4_3_3 - 163.99450000000002 Z4_4_3 - 19.55 Z4_5_3
 - 15.567499999999999 Z4_6_3 - 13.202 Z4_7_3 - 25.3 Z4_8_3 - 32.9 Z4_9_3
 - 809 Z4_10_3 - 125.99365 Z4_1_4 - 23.450000000000003 Z4_2_4 - 689 Z4_3_4
 - 163.99450000000002 Z4_4_4 - 19.55 Z4_5_4 - 15.567499999999999 Z4_6_4
 - 13.202 Z4_7_4 - 25.3 Z4_8_4 - 32.9 Z4_9_4 - 809 Z4_10_4 - 125.99365 Z4_1_5
 - 23.450000000000003 Z4_2_5 - 689 Z4_3_5 - 163.99450000000002 Z4_4_5
 - 19.55 Z4_5_5 - 15.567499999999999 Z4_6_5 - 13.202 Z4_7_5 - 25.3 Z4_8_5
 - 32.9 Z4_9_5 - 809 Z4_10_5

Subject To
R1: X_1_1 + X_2_1 + X_3_1 + X_4_1 + X_5_1 + X4_1_1 + X4_2_1 + X4_3_1 + X4_4_1
          + X4_5_1 + Z_1_1 + Z_1_2 + Z_1_3 + Z_1_4 + Z_1_5 + Z4_1_1 + Z4_1_2
          + Z4_1_3 + Z4_1_4 + Z4_1_5 <= 1 
R2: X_1_2 + X_2_2 + X_3_2 + X_4_2 + X_5_2 + X4_1_2 + X4_2_2 + X4_3_2 + X4_4_2
          + X4_5_2 + Z_2_1 + Z_2_2 + Z_2_3 + Z_2_4 + Z_2_5 + Z4_2_1 + Z4_2_2
          + Z4_2_3 + Z4_2_4 + Z4_2_5 <= 1 
R3: X_1_3 + X_2_3 + X_3_3 + X_4_3 + X_5_3 + X4_1_3 + X4_2_3 + X4_3_3 + X4_4_3
          + X4_5_3 + Z_3_1 + Z_3_2 + Z_3_3 + Z_3_4 + Z_3_5 + Z4_3_1 + Z4_3_2
          + Z4_3_3 + Z4_3_4 + Z4_3_5 <= 1 
R4: X_1_4 + X_2_4 + X_3_4 + X_4_4 + X_5_4 + X4_1_4 + X4_2_4 + X4_3_4 + X4_4_4
          + X4_5_4 + Z_4_1 + Z_4_2 + Z_4_3 + Z_4_4 + Z_4_5 + Z4_4_1 + Z4_4_2
          + Z4_4_3 + Z4_4_4 + Z4_4_5 <= 1 
R5: X_1_5 + X_2_5 + X_3_5 + X_4_5 + X_5_5 + X4_1_5 + X4_2_5 + X4_3_5 + X4_4_5
          + X4_5_5 + Z_5_1 + Z_5_2 + Z_5_3 + Z_5_4 + Z_5_5 + Z4_5_1 + Z4_5_2
          + Z4_5_3 + Z4_5_4 + Z4_5_5 <= 1 
R6: X_1_6 + X_2_6 + X_3_6 + X_4_6 + X_5_6 + X4_1_6 + X4_2_6 + X4_3_6 + X4_4_6
          + X4_5_6 + Z_6_1 + Z_6_2 + Z_6_3 + Z_6_4 + Z_6_5 + Z4_6_1 + Z4_6_2
          + Z4_6_3 + Z4_6_4 + Z4_6_5 <= 1 
R7: X_1_7 + X_2_7 + X_3_7 + X_4_7 + X_5_7 + X4_1_7 + X4_2_7 + X4_3_7 + X4_4_7
          + X4_5_7 + Z_7_1 + Z_7_2 + Z_7_3 + Z_7_4 + Z_7_5 + Z4_7_1 + Z4_7_2
          + Z4_7_3 + Z4_7_4 + Z4_7_5 <= 1 
R8: X_1_8 + X_2_8 + X_3_8 + X_4_8 + X_5_8 + X4_1_8 + X4_2_8 + X4_3_8 + X4_4_8
          + X4_5_8 + Z_8_1 + Z_8_2 + Z_8_3 + Z_8_4 + Z_8_5 + Z4_8_1 + Z4_8_2
          + Z4_8_3 + Z4_8_4 + Z4_8_5 <= 1 
R9: X_1_9 + X_2_9 + X_3_9 + X_4_9 + X_5_9 + X4_1_9 + X4_2_9 + X4_3_9 + X4_4_9
          + X4_5_9 + Z_9_1 + Z_9_2 + Z_9_3 + Z_9_4 + Z_9_5 + Z4_9_1 + Z4_9_2
          + Z4_9_3 + Z4_9_4 + Z4_9_5 <= 1 
R10: X_1_10 + X_2_10 + X_3_10 + X_4_10 + X_5_10 + X4_1_10 + X4_2_10 + X4_3_10
          + X4_4_10 + X4_5_10 + Z_10_1 + Z_10_2 + Z_10_3 + Z_10_4 + Z_10_5
          + Z4_10_1 + Z4_10_2 + Z4_10_3 + Z4_10_4 + Z4_10_5 <= 1 
R11: X_1_1 + 0.25 X_1_2 + X_1_3 + X_1_4 + 0.25 X_1_5 + 0.25 X_1_6 + 0.25 X_1_7
          + 0.25 X_1_8 + 0.25 X_1_9 + X_1_10 - C_1 <= 0 
R12: X_2_1 + 0.25 X_2_2 + X_2_3 + X_2_4 + 0.25 X_2_5 + 0.25 X_2_6 + 0.25 X_2_7
          + 0.25 X_2_8 + 0.25 X_2_9 + X_2_10 - C_2 <= 0 
R13: X_3_1 + 0.25 X_3_2 + X_3_3 + X_3_4 + 0.25 X_3_5 + 0.25 X_3_6 + 0.25 X_3_7
          + 0.25 X_3_8 + 0.25 X_3_9 + X_3_10 - C_3 <= 0 
R14: X_4_1 + 0.25 X_4_2 + X_4_3 + X_4_4 + 0.25 X_4_5 + 0.25 X_4_6 + 0.25 X_4_7
          + 0.25 X_4_8 + 0.25 X_4_9 + X_4_10 - C_4 <= 0 
R15: X_5_1 + 0.25 X_5_2 + X_5_3 + X_5_4 + 0.25 X_5_5 + 0.25 X_5_6 + 0.25 X_5_7
          + 0.25 X_5_8 + 0.25 X_5_9 + X_5_10 - C_5 <= 0 
R16: X4_1_1 + 0.25 X4_1_2 + X4_1_3 + X4_1_4 + 0.25 X4_1_5 + 0.25 X4_1_6
          + 0.25 X4_1_7 + 0.25 X4_1_8 + 0.25 X4_1_9 + X4_1_10 - C4_1 <= 0 
R17: X4_2_1 + 0.25 X4_2_2 + X4_2_3 + X4_2_4 + 0.25 X4_2_5 + 0.25 X4_2_6
          + 0.25 X4_2_7 + 0.25 X4_2_8 + 0.25 X4_2_9 + X4_2_10 - C4_2 <= 0 
R18: X4_3_1 + 0.25 X4_3_2 + X4_3_3 + X4_3_4 + 0.25 X4_3_5 + 0.25 X4_3_6
          + 0.25 X4_3_7 + 0.25 X4_3_8 + 0.25 X4_3_9 + X4_3_10 - C4_3 <= 0 
R19: X4_4_1 + 0.25 X4_4_2 + X4_4_3 + X4_4_4 + 0.25 X4_4_5 + 0.25 X4_4_6
          + 0.25 X4_4_7 + 0.25 X4_4_8 + 0.25 X4_4_9 + X4_4_10 - C4_4 <= 0 
R20: X4_5_1 + 0.25 X4_5_2 + X4_5_3 + X4_5_4 + 0.25 X4_5_5 + 0.25 X4_5_6
          + 0.25 X4_5_7 + 0.25 X4_5_8 + 0.25 X4_5_9 + X4_5_10 - C4_5 <= 0 
R21: C_1 + C4_1 <= 8 
R22: C_2 + C4_2 <= 12 
R23: C_3 + C4_3 <= 10 
R24: C_4 + C4_4 <= 10 
R25: C_5 + C4_5 <= 10 
R26: Z_1_1 <= 1 
R27: Z_1_2 <= 0 
R28: Z_1_3 <= 0 
R29: Z_1_4 <= 0 
R30: Z_1_5 <= 1 
R31: Z_2_1 <= 0 
R32: Z_2_2 <= 0 
R33: Z_2_3 <= 1 
R34: Z_2_4 <= 0 
R35: Z_2_5 <= 1 
R36: Z_3_1 <= 0 
R37: Z_3_2 <= 0 
R38: Z_3_3 <= 0 
R39: Z_3_4 <= 1 
R40: Z_3_5 <= 1 
R41: Z_4_1 <= 0 
R42: Z_4_2 <= 0 
R43: Z_4_3 <= 0 
R44: Z_4_4 <= 0 
R45: Z_4_5 <= 2 
R46: Z_5_1 <= 0 
R47: Z_5_2 <= 1 
R48: Z_5_3 <= 0 
R49: Z_5_4 <= 0 
R50: Z_5_5 <= 1 
R51: Z_6_1 <= 0 
R52: Z_6_2 <= 0 
R53: Z_6_3 <= 0 
R54: Z_6_4 <= 0 
R55: Z_6_5 <= 2 
R56: Z_7_1 <= 1 
R57: Z_7_2 <= 0 
R58: Z_7_3 <= 0 
R59: Z_7_4 <= 0 
R60: Z_7_5 <= 1 
R61: Z_8_1 <= 1 
R62: Z_8_2 <= 0 
R63: Z_8_3 <= 0 
R64: Z_8_4 <= 0 
R65: Z_8_5 <= 1 
R66: Z_9_1 <= 1 
R67: Z_9_2 <= 0 
R68: Z_9_3 <= 0 
R69: Z_9_4 <= 0 
R70: Z_9_5 <= 1 
R71: Z_10_1 <= 0 
R72: Z_10_2 <= 0 
R73: Z_10_3 <= 1 
R74: Z_10_4 <= 0 
R75: Z_10_5 <= 1 
R76: X_1_1 <= 1 
R77: X_2_1 <= 0 
R78: X_3_1 <= 0 
R79: X_4_1 <= 0 
R80: X_5_1 <= 1 
R81: X_1_2 <= 0 
R82: X_2_2 <= 0 
R83: X_3_2 <= 1 
R84: X_4_2 <= 0 
R85: X_5_2 <= 1 
R86: X_1_3 <= 0 
R87: X_2_3 <= 0 
R88: X_3_3 <= 0 
R89: X_4_3 <= 1 
R90: X_5_3 <= 1 
R91: X_1_4 <= 0 
R92: X_2_4 <= 0 
R93: X_3_4 <= 0 
R94: X_4_4 <= 0 
R95: X_5_4 <= 2 
R96: X_1_5 <= 0 
R97: X_2_5 <= 1 
R98: X_3_5 <= 0 
R99: X_4_5 <= 0 
R100: X_5_5 <= 1 
R101: X_1_6 <= 0 
R102: X_2_6 <= 0 
R103: X_3_6 <= 0 
R104: X_4_6 <= 0 
R105: X_5_6 <= 2 
R106: X_1_7 <= 1 
R107: X_2_7 <= 0 
R108: X_3_7 <= 0 
R109: X_4_7 <= 0 
R110: X_5_7 <= 1 
R111: X_1_8 <= 1 
R112: X_2_8 <= 0 
R113: X_3_8 <= 0 
R114: X_4_8 <= 0 
R115: X_5_8 <= 1 
R116: X_1_9 <= 1 
R117: X_2_9 <= 0 
R118: X_3_9 <= 0 
R119: X_4_9 <= 0 
R120: X_5_9 <= 1 
R121: X_1_10 <= 0 
R122: X_2_10 <= 0 
R123: X_3_10 <= 1 
R124: X_4_10 <= 0 
R125: X_5_10 <= 1 
R126: Z4_1_1 <= 0 
R127: Z4_1_2 <= 0 
R128: Z4_1_3 <= 0 
R129: Z4_1_4 <= 0 
R130: Z4_1_5 <= 0 
R131: Z4_2_1 <= 0 
R132: Z4_2_2 <= 0 
R133: Z4_2_3 <= 0 
R134: Z4_2_4 <= 0 
R135: Z4_2_5 <= 0 
R136: Z4_3_1 <= 0 
R137: Z4_3_2 <= 0 
R138: Z4_3_3 <= 0 
R139: Z4_3_4 <= 0 
R140: Z4_3_5 <= 0 
R141: Z4_4_1 <= 0 
R142: Z4_4_2 <= 0 
R143: Z4_4_3 <= 0 
R144: Z4_4_4 <= 0 
R145: Z4_4_5 <= 0 
R146: Z4_5_1 <= 0 
R147: Z4_5_2 <= 0 
R148: Z4_5_3 <= 0 
R149: Z4_5_4 <= 0 
R150: Z4_5_5 <= 0 
R151: Z4_6_1 <= 0 
R152: Z4_6_2 <= 0 
R153: Z4_6_3 <= 0 
R154: Z4_6_4 <= 0 
R155: Z4_6_5 <= 0 
R156: Z4_7_1 <= 0 
R157: Z4_7_2 <= 0 
R158: Z4_7_3 <= 0 
R159: Z4_7_4 <= 0 
R160: Z4_7_5 <= 0 
R161: Z4_8_1 <= 0 
R162: Z4_8_2 <= 0 
R163: Z4_8_3 <= 0 
R164: Z4_8_4 <= 0 
R165: Z4_8_5 <= 0 
R166: Z4_9_1 <= 0 
R167: Z4_9_2 <= 0 
R168: Z4_9_3 <= 0 
R169: Z4_9_4 <= 0 
R170: Z4_9_5 <= 0 
R171: Z4_10_1 <= 0 
R172: Z4_10_2 <= 0 
R173: Z4_10_3 <= 0 
R174: Z4_10_4 <= 0 
R175: Z4_10_5 <= 0 
R176: X4_1_1 <= 0 
R177: X4_2_1 <= 0 
R178: X4_3_1 <= 0 
R179: X4_4_1 <= 0 
R180: X4_5_1 <= 0 
R181: X4_1_2 <= 0 
R182: X4_2_2 <= 0 
R183: X4_3_2 <= 0 
R184: X4_4_2 <= 0 
R185: X4_5_2 <= 0 
R186: X4_1_3 <= 0 
R187: X4_2_3 <= 0 
R188: X4_3_3 <= 0 
R189: X4_4_3 <= 0 
R190: X4_5_3 <= 0 
R191: X4_1_4 <= 0 
R192: X4_2_4 <= 0 
R193: X4_3_4 <= 0 
R194: X4_4_4 <= 0 
R195: X4_5_4 <= 0 
R196: X4_1_5 <= 0 
R197: X4_2_5 <= 0 
R198: X4_3_5 <= 0 
R199: X4_4_5 <= 0 
R200: X4_5_5 <= 0 
R201: X4_1_6 <= 0 
R202: X4_2_6 <= 0 
R203: X4_3_6 <= 0 
R204: X4_4_6 <= 0 
R205: X4_5_6 <= 0 
R206: X4_1_7 <= 0 
R207: X4_2_7 <= 0 
R208: X4_3_7 <= 0 
R209: X4_4_7 <= 0 
R210: X4_5_7 <= 0 
R211: X4_1_8 <= 0 
R212: X4_2_8 <= 0 
R213: X4_3_8 <= 0 
R214: X4_4_8 <= 0 
R215: X4_5_8 <= 0 
R216: X4_1_9 <= 0 
R217: X4_2_9 <= 0 
R218: X4_3_9 <= 0 
R219: X4_4_9 <= 0 
R220: X4_5_9 <= 0 
R221: X4_1_10 <= 0 
R222: X4_2_10 <= 0 
R223: X4_3_10 <= 0 
R224: X4_4_10 <= 0 
R225: X4_5_10 <= 0 

Bounds

Generals
C_1 C_2 C_3 C_4 C_5 C4_1 C4_2 C4_3 C4_4 C4_5 

Binaries
X_1_1 X_1_2 X_1_3 X_1_4 X_1_5 X_1_6 X_1_7 X_1_8 X_1_9 X_1_10 X_2_1 X_2_2 X_2_3 
X_2_4 X_2_5 X_2_6 X_2_7 X_2_8 X_2_9 X_2_10 X_3_1 X_3_2 X_3_3 X_3_4 X_3_5 X_3_6 
X_3_7 X_3_8 X_3_9 X_3_10 X_4_1 X_4_2 X_4_3 X_4_4 X_4_5 X_4_6 X_4_7 X_4_8 X_4_9 
X_4_10 X_5_1 X_5_2 X_5_3 X_5_4 X_5_5 X_5_6 X_5_7 X_5_8 X_5_9 X_5_10 X4_1_1 
X4_1_2 X4_1_3 X4_1_4 X4_1_5 X4_1_6 X4_1_7 X4_1_8 X4_1_9 X4_1_10 X4_2_1 X4_2_2 
X4_2_3 X4_2_4 X4_2_5 X4_2_6 X4_2_7 X4_2_8 X4_2_9 X4_2_10 X4_3_1 X4_3_2 X4_3_3 
X4_3_4 X4_3_5 X4_3_6 X4_3_7 X4_3_8 X4_3_9 X4_3_10 X4_4_1 X4_4_2 X4_4_3 X4_4_4 
X4_4_5 X4_4_6 X4_4_7 X4_4_8 X4_4_9 X4_4_10 X4_5_1 X4_5_2 X4_5_3 X4_5_4 X4_5_5 
X4_5_6 X4_5_7 X4_5_8 X4_5_9 X4_5_10 Z_1_1 Z_2_1 Z_3_1 Z_4_1 Z_5_1 Z_6_1 Z_7_1 
Z_8_1 Z_9_1 Z_10_1 Z_1_2 Z_2_2 Z_3_2 Z_4_2 Z_5_2 Z_6_2 Z_7_2 Z_8_2 Z_9_2 
Z_10_2 Z_1_3 Z_2_3 Z_3_3 Z_4_3 Z_5_3 Z_6_3 Z_7_3 Z_8_3 Z_9_3 Z_10_3 Z_1_4 
Z_2_4 Z_3_4 Z_4_4 Z_5_4 Z_6_4 Z_7_4 Z_8_4 Z_9_4 Z_10_4 Z_1_5 Z_2_5 Z_3_5 Z_4_5 
Z_5_5 Z_6_5 Z_7_5 Z_8_5 Z_9_5 Z_10_5 Z4_1_1 Z4_2_1 Z4_3_1 Z4_4_1 Z4_5_1 Z4_6_1 
Z4_7_1 Z4_8_1 Z4_9_1 Z4_10_1 Z4_1_2 Z4_2_2 Z4_3_2 Z4_4_2 Z4_5_2 Z4_6_2 Z4_7_2 
Z4_8_2 Z4_9_2 Z4_10_2 Z4_1_3 Z4_2_3 Z4_3_3 Z4_4_3 Z4_5_3 Z4_6_3 Z4_7_3 Z4_8_3 
Z4_9_3 Z4_10_3 Z4_1_4 Z4_2_4 Z4_3_4 Z4_4_4 Z4_5_4 Z4_6_4 Z4_7_4 Z4_8_4 Z4_9_4 
Z4_10_4 Z4_1_5 Z4_2_5 Z4_3_5 Z4_4_5 Z4_5_5 Z4_6_5 Z4_7_5 Z4_8_5 Z4_9_5 Z4_10_5 

End
